unsat
(:binary-propagations  16
 :conflicts            1
 :final-checks         1
 :max-generation       1
 :max-memory           23.14
 :memory               20.88
 :mk-bool-var          225
 :mk-clause            36
 :mk-clause-binary     141
 :num-allocs           4626034
 :num-checks           1
 :propagations         16
 :quant-instantiations 20
 :restarts             1
 :rlimit-count         69716
 :time                 0.01)
